32      4       
11      20      20      18      
0       0       0       0       0       4       2       13      30      31      
10      1       0       0       18      2       3       29      
1       3       0       6       0       1       4       
8       8       0       0       8       2       5       18      
3       1       0       1       0       1       6       
3       2       0       7       0       1       7       
6       0       0       8       1       3       8       17      26      
5       2       7       0       0       1       9       
3       1       1       0       0       3       10      24      25      
4       1       0       0       2       1       11      
8       1       4       0       0       4       12      21      22      23      
5       7       8       0       0       2       14      20      
4       0       6       0       4       2       16      28      
6       2       4       0       0       1       15      
5       3       0       0       1       1       16      
6       1       0       1       0       1       19      
8       0       0       1       1       1       19      
2       0       7       0       7       1       27      
9       0       1       6       0       1       32      
10      0       4       15      0       1       32      
3       0       1       0       5       1       32      
3       1       0       1       0       1       32      
10      0       0       4       1       1       32      
3       0       5       0       1       1       32      
6       0       0       5       1       1       32      
9       0       0       14      10      1       32      
10      0       0       2       6       1       32      
10      7       7       0       0       1       32      
6       0       15      3       0       1       32      
7       0       3       0       2       1       32      
1       0       2       1       0       1       32      
0       0       0       0       0       0       
